#MP2/aug-cc-pVTZ

ethyne

0 1
H 0. 0. -0.0678155007
C 0. 0. 0.9939448874
C 0. 0. 2.2060551126
H 0. 0. 3.2678155007

