#MP2/aug-cc-pVTZ counterpoise=2

ethyne

0,1 0,1 0,1
H 0. 0. -0.0678155007 1
C 0. 0. 0.9939448874 1
C 0. 0. 2.2060551126 1
H 0. 0. 3.2678155007 1
H 0. 4.9321844993 1.6 2
C 0. 5.9939448874 1.6 2
C 0. 7.2060551126 1.6 2
H 0. 8.2678155007 1.6 2

