#MP2/def2TZVP counterpoise=2

zn dimer

4,1 2,1 2,1 
Zn 0.0 0.0 0.0 1
Zn 0.0 0.0 3.5 2

