! HF cc-pVTZ  opt freq

* xyz 0 1
C 0.000000 0.000000 0.000000
O 0.000000 0.000000 1.155028
O 0.000000 0.000000 -1.155028
*
