! PBE0 cc-pVTZ   opt freq

* xyz 0 1
H 0.000000 0.000000 0.000000
H 0.000000 0.000000 0.9
*
