%chk=co2-dimer.chk
%nproc=8
%mem=2000MB
#MP2/aug-cc-pvtz opt=tight counterpoise=2

Title Card Required

0 1 0 1 0 1
 C(Fragment=1)                 -2.51131212   -0.27903469    0.00000000
 O(Fragment=1)                 -3.76971212   -0.27903469    0.00000000
 O(Fragment=1)                 -1.25291212   -0.27903469    0.00000000
 C(Fragment=2)                 -1.27730433   -2.42706854   -0.00000000
 O(Fragment=2)                 -2.53537983   -2.39849245   -0.00000000
 O(Fragment=2)                 -0.01922883   -2.45564463   -0.00000000

