%chk=nacl.chk
%nproc=8
%mem=2000MB
#MP2/aug-cc-pvtz opt=modredundant counterpoise=2

Title Card Required

0 1 1 1 -1 1
 Na(Fragment=1) 0.0 0.0 0.0
 Cl(Fragment=2) 0.0 0.0 1.0

1 2 S 90 0.1

