! pbe0 def2-TZVP irc
%pal nprocs 4 end

* xyzfile -1 1 tsopt.xyz
