! pbe0 def2-TZVP Opt freq
%pal nprocs 4 end

* xyz -1 1
C      -0.005455    0.000075    0.000294
Cl     -1.505455   -0.000029   -0.000110
H       0.485694    0.893438    0.396846
H       0.485867   -0.789927    0.575757
H       0.486279   -0.103201   -0.971396
F       2.685291   -0.000029   -0.000121
*
