! pbe0 def2-TZVP Optts freq
%pal nprocs 4 end

%geom
Calc_Hess true # Request an exact analytical Hessian in the first optimization step.
Recalc_Hess 5 # Recalculate the exact Hessian every 5 steps.
end

* xyzfile -1 1 tsinitial.xyz
