! PBE def2-TZVP opt freq 

*xyz 0 1
 C                  0.00000000    0.00000000    0.0
 O                  0.00000000    0.00000000    1.1
*
