!CCSD(T) aug-cc-pVTZ  tightscf

* xyzfile 0 1 ch4.xyz
