!CCSD(T) aug-cc-pVTZ  tightscf

* xyzfile 0 1 co2.xyz
