!CCSD(T)cc-pVTZ  tightscf

* xyzfile 0 1 co2.xyz
