!CCSD(T) cc-pVTZ  tightscf

* xyzfile 0 1 h2.xyz
