!CCSD(T) aug-cc-pVTZ  tightscf

* xyzfile 0 1 h2o.xyz
