!CCSD(T) cc-pVTZ  tightscf

* xyzfile 0 1 n2.xyz
