! mp2 cc-pVTZ opt numfreq  


* xyz 0 1
N 0.000000 0.000000 0.000000
N 0.000000 0.000000 1.100000
*
