!CCSD(T) aug-cc-pVTZ  tightscf

* xyzfile 0 1 nh3.xyz
