!CCSD(T) cc-pVTZ  tightscf

* xyzfile 0 3 o2.xyz
