! mp2 aug-cc-pVTZ   opt freq

*xyz 0 3
O 0.000000 0.000000 0.000000
O 0.000000 0.000000 1.2
*
