!MP2  aug-cc-pvtz tightopt

CO2 dimer

*xyz 0 1
C -2.51131212   -0.27903469    0.00000000
O -3.76971212   -0.27903469    0.00000000
O -1.25291212   -0.27903469    0.00000000
C -1.27730433   -2.42706854   -0.00000000
O  -2.53537983   -2.39849245   -0.00000000
O  -0.01922883   -2.45564463   -0.00000000
*
