!MP2  aug-cc-pvtz tightopt

*xyz 0 1
C -2.51131212   -0.27903469    0.00000000
O -3.76971212   -0.27903469    0.00000000
O -1.25291212   -0.27903469    0.00000000
*
