!MP2 aug-cc-pvtz tightopt 

*xyz 0 1 
 O                   1.36500749   -0.53544494    0.00000000 
 H                   2.32500749   -0.53544494    0.00000000 
 H                   1.04455290    0.36949089    0.00000000 
 *
 
