%chk=nacl.chk
%nproc=8
%mem=2000MB
!MP2/aug-cc-pvtz opt

%geom Scan
B 0 1 = 1.0, 10.0, 91
end
end

*xyz 0 1 
Na 0.0 0.0 0.0
Cl 0.0 0.0 1.0
*
